%chk=16_1.chk
%mem=8gb
%nproc=8
#p mp2/6-311g(d,p)

Single point energy calculation of a hydronium cluster

1 1 
O 1.4240 3.0466 -1.5228
H 2.1482 3.0309 -0.8659
H 1.5562 2.2616 -2.0860
O 1.3048 1.2222 1.7532
H 2.0769 1.7318 1.4239
H 1.6403 0.5482 2.3736
O 3.1656 -2.2543 0.8626
H 3.8566 -2.9259 0.8711
H 2.4254 -2.6052 0.3138
O -2.5203 1.5926 -1.7166
H -2.2317 0.8215 -2.2349
H -3.1703 1.2848 -1.0590
O 1.9342 -1.1342 3.0620
H 2.4592 -1.6071 2.3788
H 2.3434 -1.3178 3.9143
O -0.9725 2.7142 1.7684
H -1.6797 2.1569 2.1407
H -0.1370 2.2422 1.9653
O 3.7997 0.1394 -0.6803
H 3.6815 -0.6715 -0.1588
H 3.1420 0.1095 -1.4005
O 0.0373 -0.1686 -0.2375
H 0.4091 0.3349 0.5226
H -0.8993 -0.3735 -0.0685
O 1.5807 0.4114 -2.4045
H 0.9006 0.2091 -1.7289
H 1.4343 -0.2328 -3.1108
O -2.6833 0.6651 2.7019
H -3.0568 0.7224 3.5884
H -2.0297 -0.0826 2.7189
O 3.3370 2.4735 0.4290
H 4.0913 3.0115 0.6910
H 3.6814 1.6249 0.0371
O -4.1379 0.5751 0.3953
H -3.7425 0.6728 1.2917
H -5.0837 0.7369 0.4770
O -0.8806 -1.2893 2.6033
H 0.0548 -1.2738 2.8705
H -1.0404 -2.1523 2.1830
O -2.4975 -1.4671 -0.4318
H -2.4666 -1.4137 -1.4072
H -3.2661 -0.9366 -0.1478
O 0.4866 -2.1491 -3.2543
H 0.7250 -2.8047 -3.9183
H 0.6979 -2.5359 -2.3757
O -1.9426 -0.8822 -3.0715
H -2.4766 -0.9853 -3.8667
H -1.0864 -1.3348 -3.2447
O 0.9104 -2.7044 -0.5781
H 0.2384 -3.2481 -0.1229
H 0.6260 -1.7767 -0.3895
O -1.3490 -3.4944 0.8778
H -1.9525 -2.9062 0.3678
H -1.8142 -4.3201 1.0472
O -0.9420 3.3271 -0.6938
H -1.5394 2.6552 -1.1668
H -0.9837 3.1218 0.3123
H 0.0308 3.2394 -1.0334







                            




