%chk=21_2.chk
%mem=8gb
%nproc=8
#p mp2/6-311g(d,p)

Single point energy calculation of a hydronium cluster

1 1 
O -3.5312 0.0344 -1.3625
H -3.1834 0.5926 -2.0826
H -2.9587 -0.7595 -1.3383
O -0.6383 2.4522 -1.0893
H -0.3825 1.5783 -0.7086
H 0.1986 2.9389 -1.2108
O 0.1705 -0.2066 -3.4997
H -0.6126 0.3738 -3.5346
H 0.9473 0.3540 -3.3334
O -0.0168 0.0243 0.0161
H 0.8966 -0.2163 -0.2436
H -0.5952 -0.6918 -0.3350
O -1.6755 -1.9465 -0.9555
H -1.8813 -2.5911 -0.2465
H -1.2355 -2.4255 -1.6829
O -0.0698 2.7074 3.0019
H -0.1106 1.7271 3.1132
H -0.0775 3.1040 3.8796
O 2.1474 2.5718 1.2692
H 1.4334 2.7238 1.9164
H 2.6701 1.8083 1.5652
O 0.7296 -3.1767 1.3532
H 1.2159 -3.2600 0.5163
H 1.2966 -2.7131 1.9929
O -2.1935 2.9091 1.1583
H -1.5524 2.9724 1.8911
H -1.6596 2.9513 0.3396
O 2.5370 1.2187 -2.7748
H 2.4208 2.0729 -2.2941
H 3.1979 1.3695 -3.4595
O 0.0083 -2.7667 -3.0117
H 0.0919 -1.8086 -3.2815
H -0.2139 -3.2678 -3.8037
O -2.7202 -0.9132 2.4607
H -1.8333 -0.6336 2.7632
H -2.6095 -1.8300 2.1456
O 2.0088 3.3663 -1.2121
H 2.3201 4.2715 -1.3171
H 2.1345 3.1188 -0.2527
O -0.1383 0.0404 2.7416
H -0.0578 0.0146 1.7579
H 0.5842 -0.5212 3.0795
O 2.6064 -0.6066 -0.7082
H 2.5541 -1.5459 -0.9836
H 2.7327 -0.0552 -1.5079
O 2.1333 -1.5418 3.2002
H 2.5053 -1.8785 4.0223
H 2.8112 -0.9694 2.7789
O 3.6326 0.1450 1.6540
H 3.3953 -0.1662 0.7466
H 4.5916 0.2329 1.6821
O -2.0214 1.5368 -3.1985
H -1.5579 2.0685 -2.5084
H -2.3803 2.1460 -3.8523
O -1.9102 -3.3721 1.3596
H -0.9240 -3.3861 1.4595
H -2.2395 -4.2481 1.5856
O 1.9919 -3.2273 -1.2353
H 2.5883 -3.9500 -1.4592
H 1.3029 -3.1926 -1.9416
O -3.7481 0.9034 1.0077
H -3.3847 0.1490 1.6002
H -3.1503 1.7313 1.1164
H -3.7075 0.5942 0.0272





                            




