%chk=21_3.chk
%mem=8gb
%nproc=8
#p mp2/6-311g(d,p)

Single point energy calculation of a hydronium cluster

1 1 
O 2.8142 2.3956 1.0384
H 1.8902 2.4556 1.3578
H 2.7872 2.7194 0.1186
O 1.8371 0.3225 -2.0101
H 1.1695 0.1601 -1.3005
H 1.4017 0.0304 -2.8316
O -2.1457 3.4501 1.0985
H -2.2301 4.2521 1.6243
H -1.2606 3.0688 1.3069
O 0.4878 -2.4130 1.3315
H -0.3834 -2.8254 1.4926
H 0.9913 -3.0067 0.7379
O 0.1528 2.1125 1.6672
H 0.0990 1.3333 1.0663
H 0.0347 1.7370 2.5642
O 1.9062 -3.5195 -0.7348
H 2.2348 -4.4018 -0.9376
H 1.2238 -3.2973 -1.4208
O -0.0718 -2.8355 -2.3671
H -0.0592 -2.0752 -2.9733
H -0.9678 -2.8890 -1.9922
O -2.2150 -0.5821 2.4130
H -2.9442 -0.0449 2.0619
H -2.4172 -1.5214 2.2710
O 3.5444 -1.2810 -0.5137
H 3.1298 -0.7634 -1.2297
H 3.1019 -2.1529 -0.5251
O -1.7281 1.5029 -3.1239
H -2.3256 1.9454 -3.7369
H -1.2582 2.2200 -2.6182
O -3.7861 1.3226 1.0193
H -3.2863 2.1711 1.1217
H -4.7232 1.5425 1.0539
O 1.9238 -0.8888 3.1017
H 1.2414 -0.3231 3.5123
H 1.4369 -1.5808 2.6096
O -0.0047 -0.4756 -3.9754
H -0.6683 0.2226 -3.7870
H 0.0801 -0.5406 -4.9325
O 0.0311 -0.0652 -0.0165
H 0.1862 -0.8927 0.4948
H -0.8994 -0.1082 -0.3186
O -0.3805 3.3291 -1.7801
H -0.7359 3.9106 -1.0999
H 0.5965 3.3204 -1.7079
O -2.1618 -3.2484 1.4703
H -2.4875 -4.0898 1.8071
H -2.4286 -3.1884 0.5257
O -2.6623 -2.6736 -1.1620
H -3.4157 -2.9983 -1.6671
H -2.7316 -1.6851 -1.1491
O 2.3509 2.9246 -1.6642
H 2.9847 3.3390 -2.2595
H 2.2741 1.9705 -1.9160
O -0.3329 0.5364 3.8814
H -0.5892 0.7045 4.7939
H -1.0868 0.0668 3.4401
O -2.5870 -0.0190 -1.0161
H -2.4397 0.5691 -1.7859
H -3.1087 0.4953 -0.3596
O 3.7102 0.0909 1.6148
H 3.6917 -0.4904 0.7670
H 3.4147 1.0430 1.3652
H 3.0150 -0.2877 2.2798






                            




