%chk=21_4.chk
%mem=8gb
%nproc=8
#p mp2/6-311g(d,p)

Single point energy calculation of a hydronium 

1 1
O -1.3544 0.5796 -3.5011
H -1.7368 -0.1408 -2.9623
H -0.4386 0.2956 -3.6773
O 1.8546 1.2792 -1.4614
H 1.1737 0.8996 -0.8577
H 2.7192 1.1552 -1.0215
O -1.0111 -3.6514 -1.4886
H -1.3978 -4.2390 -2.1468
H -1.4778 -2.7770 -1.5658
O -1.2556 1.9903 1.7814
H -1.2400 1.5181 2.6339
H -0.6283 2.7410 1.8388
O -2.0436 -1.1912 -1.4803
H -1.4278 -0.6603 -0.9209
H -2.9240 -1.0689 -1.0706
O 0.8151 3.7489 1.5003
H 1.0811 4.5381 1.9838
H 1.5118 3.0598 1.6513
O 2.4544 1.6947 1.8725
H 3.1582 1.3549 1.2930
H 2.2228 0.9743 2.4824
O -2.5180 -1.4601 2.0111
H -2.0813 -2.3119 1.8466
H -2.0164 -0.9876 2.6972
O 0.3745 3.6035 -1.2830
H 1.0671 2.9319 -1.4417
H 0.4688 3.8458 -0.3423
O 4.0857 -2.0240 -0.5460
H 4.7666 -2.7024 -0.5748
H 3.2952 -2.3770 -0.9966
O -1.0714 -3.8180 1.2283
H -1.1434 -3.9612 0.2576
H -1.1497 -4.6784 1.6540
O -3.1907 2.0613 -0.1829
H -3.6913 1.2257 -0.1207
H -2.6509 2.1137 0.6301
O 4.1899 0.6363 -0.0892
H 4.2582 -0.3367 -0.2333
H 5.0576 1.0113 -0.2738
O -0.2066 0.2105 -0.0073
H -0.5925 0.8620 0.6234
H 0.1543 -0.5140 0.5429
O 1.5567 -2.4305 -1.5518
H 0.8120 -3.0474 -1.6685
H 1.4654 -1.7660 -2.2668
O -0.9749 0.1080 3.8341
H -1.2515 0.1638 4.7553
H -0.0279 -0.1513 3.8317
O 1.6448 -0.6049 3.3567
H 2.2730 -1.0019 3.9695
H 1.5553 -1.2184 2.5892
O 1.3143 -0.3910 -3.4536
H 1.8756 -0.3817 -4.2363
H 1.6457 0.3117 -2.8387
O -4.1694 -0.5367 0.1548
H -5.0895 -0.8011 0.2553
H -3.6707 -0.8736 0.9412
O 0.9935 -1.9919 1.1659
H 1.3978 -2.1365 0.2874
H 0.3472 -2.7175 1.2880
O -1.8233 2.7321 -2.2103
H -0.9535 3.1310 -1.8356
H -1.6085 1.9052 -2.7752
H -2.4241 2.4560 -1.4234








                            




