%chk= 22_1_hydronium.chk
%mem=8gb
%nproc=8
#p mp2/6-311g(d,p)

Single point energy calculation of a hydronium cluster

1 1 
O 0.2824 -3.7754 -0.8489
H -0.4091 -3.1358 -1.1165
H 0.1668 -3.9093 0.1108
O 1.4283 -1.4116 1.9528
H 0.9553 -0.8812 1.2662
H 1.4363 -0.8437 2.7453
O -3.6770 -2.0676 -0.1749
H -4.0728 -2.9167 -0.3997
H -2.8809 -1.9531 -0.7559
O 2.1419 1.1928 -1.5664
H 1.8755 2.1134 -1.7497
H 2.9852 1.2222 -1.0675
O -1.3860 -1.6536 -1.4639
H -0.8452 -1.0076 -0.9499
H -1.3497 -1.3380 -2.3904
O 4.2001 1.0173 0.2264
H 5.0834 1.3965 0.2800
H 3.6612 1.4081 0.9629
O 2.5215 2.0674 1.9826
H 2.0344 1.6110 2.6896
H 1.9457 2.7817 1.6616
O -1.1916 1.8965 -2.5153
H -0.5327 2.5875 -2.3350
H -1.9740 2.0810 -1.9670
O 3.5754 -1.7141 0.2432
H 2.9457 -1.6659 0.9902
H 3.9684 -0.8228 0.1824
O -1.6895 0.5116 3.3428
H -2.3609 0.6536 4.0191
H -1.8911 -0.3792 2.9291
O -4.9705 0.3532 -0.2353
H -4.6229 -0.5628 -0.2323
H -5.9297 0.3047 -0.1982
O 1.7877 -0.9430 -3.2588
H 0.8856 -0.8470 -3.6180
H 1.9809 -0.1006 -2.7994
O 1.0071 0.5729 3.8837
H 0.0254 0.5900 3.8307
H 1.2442 0.5947 4.8168
O 0.2030 0.0235 -0.0075
H 0.8925 0.4410 -0.5739
H -0.3344 0.7638 0.3446
O -2.1673 -1.7774 2.1921
H -2.7883 -1.9130 1.4539
H -1.5382 -2.5215 2.1792
O 0.9131 3.6801 -1.7730
H 1.1736 4.4606 -2.2734
H 0.8346 3.9452 -0.8303
O 0.5999 3.9247 0.9395
H 0.4415 4.7385 1.4300
H -0.1785 3.3325 1.0926
O -0.0677 -3.6390 1.9423
H 0.1546 -4.3517 2.5508
H 0.5864 -2.9117 2.0787
O -0.8988 -0.3710 -3.8478
H -1.3055 -0.3724 -4.7202
H -1.0225 0.5338 -3.4619
O -1.3167 2.0765 1.1168
H -1.5909 1.6354 1.9488
H -2.1160 2.2297 0.5671
O 2.4755 -2.8553 -1.7450
H 2.9741 -2.4041 -0.9701
H 1.6250 -3.2910 -1.3697
H 2.1911 -2.1243 -2.4107
O -3.3323 2.3875 -0.7011
H -3.9962 1.6611 -0.5809
H -3.8361 3.1979 -0.8329





                            




