%chk=22_2_hydronium.chk
%mem=8gb
%nproc=8
#p mp2/6-311g(d,p)

Single point energy calculation of a hydronium cluster

1 1
O 0.3186 -3.7651 -0.8828
H -0.3887 -3.1319 -1.1233
H 0.2325 -3.9093 0.0786
O 1.5186 -1.4108 1.9052
H 1.0178 -0.8788 1.2399
H 1.5444 -0.8519 2.7036
O -3.6535 -2.1015 -0.0704
H -4.0312 -2.9649 -0.2711
H -2.8708 -1.9795 -0.6686
O 2.0792 1.2381 -1.6110
H 1.7948 2.1561 -1.7812
H 2.9406 1.2764 -1.1448
O -1.4023 -1.6646 -1.4184
H -0.8518 -1.0159 -0.9178
H -1.4013 -1.3410 -2.3430
O 4.1980 1.0757 0.1116
H 5.0770 1.4667 0.1474
H 3.6714 1.4524 0.8637
O 2.5391 2.0799 1.9142
H 2.0870 1.6168 2.6401
H 1.9449 2.7905 1.6197
O -1.3015 1.9089 -2.4598
H -0.6380 2.5997 -2.2953
H -2.0658 2.0869 -1.8844
O 3.6153 -1.6662 0.1236
H 3.0077 -1.6321 0.8895
H 3.9944 -0.7691 0.0582
O -1.5852 0.4629 3.4242
H -2.2306 0.5818 4.1296
H -1.7878 -0.4241 3.0027
O -5.0190 0.2736 -0.2572
H -4.6490 -0.6315 -0.1955
H -5.9761 0.1996 -0.3048
O 1.6982 -0.8889 -3.3046
H 0.7848 -0.8031 -3.6374
H 1.8910 -0.0491 -2.8397
O 1.1263 0.5580 3.8642
H 0.1431 0.5592 3.8440
H 1.3932 0.5800 4.7894
O 0.2083 0.0246 -0.0011
H 0.8750 0.4625 -0.5792
H -0.3307 0.7497 0.3795
O -2.0650 -1.8087 2.2438
H -2.7148 -1.9409 1.5301
H -1.4332 -2.5496 2.2015
O 0.8083 3.7042 -1.7652
H 1.0372 4.4957 -2.2639
H 0.7491 3.9573 -0.8176
O 0.5577 3.9169 0.9535
H 0.4002 4.7253 1.4532
H -0.2066 3.3111 1.1250
O 0.0403 -3.6495 1.9168
H 0.2844 -4.3639 2.5149
H 0.6914 -2.9170 2.0410
O -1.0120 -0.3532 -3.8039
H -1.4475 -0.3567 -4.6624
H -1.1413 0.5466 -3.4079
O -1.3181 2.0341 1.1871
H -1.5525 1.5930 2.0312
H -2.1396 2.1661 0.6645
O 2.4684 -2.8047 -1.8386
H 2.9864 -2.3532 -1.0763
H 1.6377 -3.2577 -1.4400
H 2.1498 -2.0710 -2.4865
O -3.3868 2.3431 -0.5656
H -4.0460 1.6066 -0.4887
H -3.8969 3.1567 -0.6430




                            




