%chk=22_3.chk
%mem=8gb
%nproc=8
#p hf/6-311g(d,p) pop=chelpg

Single point energy calculation of a hydronium cluster

1 1
O 0.3354 -3.7772 -0.8137
H -0.3298 -3.1336 -1.1334
H 0.1427 -3.9163 0.1329
O 1.2364 -1.4002 2.0457
H 0.8182 -0.8738 1.3218
H 1.1812 -0.8280 2.8333
O -3.6685 -2.0775 -0.4858
H -4.0899 -2.8865 -0.7951
H -2.8309 -1.9614 -1.0042
O 2.2560 1.1767 -1.4122
H 2.0077 2.0958 -1.6256
H 3.0577 1.2095 -0.8487
O -1.2787 -1.6574 -1.5747
H -0.7898 -1.0008 -1.0236
H -1.1589 -1.3554 -2.4988
O 4.1710 1.0111 0.5323
H 5.0465 1.3937 0.6507
H 3.5765 1.4036 1.2237
O 2.3567 2.0617 2.1448
H 1.8054 1.6151 2.8097
H 1.8211 2.7846 1.7762
O -0.9953 1.8693 -2.6573
H -0.3526 2.5540 -2.4072
H -1.8183 2.0431 -2.1682
O 3.5299 -1.7164 0.5381
H 2.8324 -1.6507 1.2209
H 3.9360 -0.8296 0.4999
O -1.9706 0.5278 3.1196
H -2.7041 0.6680 3.7284
H -2.1293 -0.3674 2.6972
O -4.7899 0.3956 -0.1672
H -4.5075 -0.5310 -0.3184
H -5.7304 0.3824 0.0322
O 2.0480 -0.9728 -3.1091
H 1.1792 -0.8825 -3.5446
H 2.1981 -0.1264 -2.6407
O 0.6611 0.6048 3.9161
H -0.3111 0.6168 3.7685
H 0.8066 0.6340 4.8676
O 0.1775 0.0439 -0.0078
H 0.9206 0.4451 -0.5151
H -0.3699 0.7977 0.2966
O -2.3449 -1.7953 1.9899
H -2.9044 -1.9541 1.2091
H -1.7165 -2.5378 2.0479
O 1.0351 3.6568 -1.7347
H 1.3202 4.4323 -2.2297
H 0.9018 3.9346 -0.8017
O 0.5628 3.9470 0.9489
H 0.3864 4.7689 1.4193
H -0.2382 3.3735 1.0470
O -0.2257 -3.6482 1.9424
H -0.0370 -4.3562 2.5673
H 0.4059 -2.9111 2.1235
O -0.5793 -0.4141 -3.9270
H -0.9106 -0.4274 -4.8307
H -0.7365 0.4956 -3.5651
O -1.3906 2.1363 0.9732
H -1.7420 1.6807 1.7681
H -2.1351 2.2953 0.3538
O 2.6003 -2.8711 -1.5266
H 3.0327 -2.4132 -0.7160
H 1.7190 -3.3010 -1.2215
H 2.3751 -2.1437 -2.2196
O -3.2578 2.3893 -1.0157
H -3.9058 1.6742 -0.7919
H -3.7732 3.1689 -1.2484





                            




