%chk=22_5.chk
%mem=8gb
%nproc=8
#p mp2/6-311g(d,p) 

Single point energy calculation of a hydronium cluster

1 1
O -1.3376 -2.9850 1.8652
H -1.7140 -2.5631 1.0648
H -1.4481 -2.3320 2.5817
O 0.9398 0.0295 2.6330
H 0.7076 0.0394 1.6730
H 1.2764 0.9250 2.8225
O -3.5922 0.5120 -0.3726
H -4.5547 0.3486 -0.3269
H -3.1394 -0.3630 -0.4276
O 2.4021 -1.0318 -1.4823
H 2.4970 -0.4819 -2.2827
H 3.2296 -0.9584 -0.9628
O -1.9087 -1.5801 -0.4314
H -1.0894 -1.0388 -0.3466
H -1.8074 -2.0778 -1.2670
O 4.3223 -0.6193 0.4143
H 5.2845 -0.6497 0.4266
H 4.0522 0.3278 0.5365
O 3.3633 1.8429 0.5494
H 2.8361 2.2292 1.2701
H 3.1045 2.2935 -0.2717
O -0.5319 -0.1119 -3.3903
H -1.1347 0.5944 -3.1021
H 0.3519 0.2728 -3.5165
O 2.6305 -2.0949 2.1121
H 2.1427 -1.3292 2.4761
H 3.3401 -1.7115 1.5625
O -0.8021 3.4410 1.7455
H -1.2714 4.2454 1.9915
H -1.4339 2.6755 1.9054
O -2.3050 1.8665 -2.2838
H -2.8997 1.4089 -1.6338
H -2.8674 2.3884 -2.8657
O 1.0874 -3.4414 -1.3291
H 0.3040 -3.3560 -1.9043
H 1.6390 -2.6551 -1.5163
O 1.6760 2.7395 2.6483
H 0.7999 3.1189 2.4096
H 2.0300 3.2660 3.3729
O 0.3155 -0.0260 -0.0180
H 1.0777 -0.3668 -0.5415
H 0.1696 0.8951 -0.3170
O -2.3923 1.4104 1.9891
H -2.8779 1.0952 1.2013
H -2.2259 0.6476 2.5720
O 2.1658 0.8362 -3.5266
H 2.6132 0.9008 -4.3771
H 2.3011 1.6889 -3.0574
O 2.2703 2.9967 -1.8488
H 2.4931 3.9019 -2.0914
H 1.3413 3.0035 -1.5080
O -1.4581 -0.7449 3.5685
H -1.5874 -0.8083 4.5207
H -0.5286 -0.4502 3.4128
O -1.1181 -2.6433 -2.8596
H -1.5471 -3.1124 -3.5821
H -0.8892 -1.7356 -3.1839
O -0.1529 2.6280 -0.8009
H -0.4150 3.0699 0.0345
H -0.9595 2.5303 -1.3522
O 0.9718 -3.7833 1.1804
H 1.6802 -3.1450 1.5580
H 0.0455 -3.4928 1.5210
H 0.9839 -3.7030 0.1559
O -6.3159 0.0755 -0.1695
H -6.8016 0.1377 0.6596
H -6.9491 -0.2058 -0.8379




                            




